* ENCODING=ISO-8859-1
NAME          
ROWS
 N  obj1    
 L  c1      
 L  c2      
 L  c3      
 L  c4      
 L  c5      
 L  c6      
 L  c7      
 L  c8      
 E  c9      
 L  c10     
 L  c11     
 L  c12     
 L  c13     
 L  c14     
 L  c15     
 L  c16     
 L  c17     
 L  c18     
 L  c19     
 L  c20     
 L  c21     
 L  c22     
 L  c23     
 L  c24     
 L  c25     
 L  c26     
 L  c27     
COLUMNS
    MARK0000  'MARKER'                 'INTORG'
    x3        c1                              2
    x3        c2                              2
    x3        c8                             -2
    x3        c10                             1
    x3        c11                            -1
    x4        c1                              1
    x4        c4                              1
    x4        c8                             -1
    x4        c10                             1
    x4        c11                            -1
    x5        c1                              1
    x5        c3                              1
    x5        c8                             -1
    x5        c10                             1
    x5        c11                            -1
    x6        c1                              2
    x6        c5                              2
    x6        c8                             -2
    x6        c10                             1
    x6        c11                            -1
    x7        c1                              1
    x7        c6                              1
    x7        c8                             -1
    x7        c10                             1
    x7        c11                            -1
    x8        c1                              1
    x8        c7                              1
    x8        c8                             -1
    x8        c10                             1
    x8        c11                            -1
    x9        c2                             -2
    x10       c2                             -2
    x11       c2                             -2
    x11       c3                             -1
    x12       c2                             -2
    x14       c4                             -1
    x15       c4                             -1
    x16       c4                             -1
    x17       c5                             -2
    x18       c5                             -2
    x19       c6                             -1
    x20       c7                             -1
    x21       c7                             -1
    x22       c7                             -1
    x23       c7                             -1
    x24       c7                             -1
    x25       c7                             -1
    x26       c7                             -1
    x27       c7                             -1
    x28       c7                             -1
    x29       c7                             -1
    x30       c7                             -1
    x31       c7                             -1
    x32       c7                             -1
    x33       c7                             -1
    x34       c7                             -1
    x35       c7                             -1
    x36       c7                             -1
    x37       c7                             -1
    x38       c7                             -1
    x39       c7                             -1
    x40       c7                             -1
    x41       c7                             -1
    MARK0001  'MARKER'                 'INTEND'
    A_hat_0   c13                            -1
    A_hat_0   c14                             1
    A_hat_0   c24                             2
    A_hat_0   c27                            -2
    A_hat_1   c16                            -1
    A_hat_1   c17                             1
    A_hat_1   c24             0.285714285714286
    A_hat_1   c27            -0.285714285714286
    A_hat_2   c18                            -1
    A_hat_2   c19                             1
    A_hat_2   c24             0.153846153846154
    A_hat_2   c27            -0.153846153846154
    A_hat_3   c20                            -1
    A_hat_3   c21                             1
    A_hat_3   c24             0.105263157894737
    A_hat_3   c27            -0.105263157894737
    A_hat_4   c22                            -1
    A_hat_4   c23                             1
    A_hat_4   c24                          0.08
    A_hat_4   c27                         -0.08
    t_hat_0   obj1                           -1
    t_hat_0   c12                             1
    t_hat_0   c24                             7
    t_hat_0   c25                             1
    t_hat_0   c26                            -7
    t_hat_0   c27                            -1
    t_hat_1   obj1                           -1
    t_hat_1   c15           0.00371209868373286
    t_hat_1   c24                            13
    t_hat_1   c25                             7
    t_hat_1   c26                            -8
    t_hat_1   c27                            -7
    t_hat_2   obj1                           -1
    t_hat_2   c24                            19
    t_hat_2   c25              7.70929136455198
    t_hat_2   c26                            -8
    t_hat_2   c27                           -13
    t_hat_3   obj1                           -1
    t_hat_3   c24                            25
    t_hat_3   c25              7.29029183564487
    t_hat_3   c26                            -8
    t_hat_3   c27                           -18
    t_hat_4   obj1                           -1
    t_hat_4   c24                            33
    t_hat_4   c25               7.0899392854362
    t_hat_4   c26                            -8
    t_hat_4   c27                           -18
    w         c8                              1
    w         c24                            -1
    w         c25                            -1
    w         c26                             1
    w         c27                             1
    MARK0002  'MARKER'                 'INTORG'
    z_0       c9                              1
    z_0       c12                            -2
    z_0       c13                             1
    z_0       c14                            -7
    z_0       c24                           -14
    z_0       c27                             2
    z_1       c9                              1
    z_1       c15          -0.00185604934186643
    z_1       c16                             7
    z_1       c17                           -13
    z_1       c24             -3.71428571428571
    z_1       c27                             2
    z_2       c9                              1
    z_2       c18                            13
    z_2       c19                           -19
    z_2       c24             -2.92307692307692
    z_2       c27                             2
    z_3       c9                              1
    z_3       c20                            19
    z_3       c21                           -25
    z_3       c24             -2.63157894736842
    z_3       c27                             2
    z_4       c9                              1
    z_4       c22                            25
    z_4       c23                           -33
    z_4       c24                         -2.64
    z_4       c27                             2
    MARK0003  'MARKER'                 'INTEND'
RHS
    rhs       c1                              2
    rhs       c9                              1
    rhs       c10                             2
    rhs       c11                            -1
BOUNDS
 BV bnd       x3      
 BV bnd       x4      
 BV bnd       x5      
 BV bnd       x6      
 BV bnd       x7      
 BV bnd       x8      
 BV bnd       x9      
 BV bnd       x10     
 BV bnd       x11     
 BV bnd       x12     
 BV bnd       x14     
 BV bnd       x15     
 BV bnd       x16     
 BV bnd       x17     
 BV bnd       x18     
 BV bnd       x19     
 BV bnd       x20     
 BV bnd       x21     
 BV bnd       x22     
 BV bnd       x23     
 BV bnd       x24     
 BV bnd       x25     
 BV bnd       x26     
 BV bnd       x27     
 BV bnd       x28     
 BV bnd       x29     
 BV bnd       x30     
 BV bnd       x31     
 BV bnd       x32     
 BV bnd       x33     
 BV bnd       x34     
 BV bnd       x35     
 BV bnd       x36     
 BV bnd       x37     
 BV bnd       x38     
 BV bnd       x39     
 BV bnd       x40     
 BV bnd       x41     
 UP bnd       A_hat_0                         7
 UP bnd       A_hat_1                        13
 UP bnd       A_hat_2                        19
 UP bnd       A_hat_3                        25
 UP bnd       A_hat_4                        33
 UP bnd       t_hat_0                         2
 UP bnd       t_hat_1         0.285714285714286
 UP bnd       t_hat_2         0.153846153846154
 UP bnd       t_hat_3         0.105263157894737
 UP bnd       t_hat_4                      0.08
 UP bnd       w                               8
 BV bnd       z_0     
 BV bnd       z_1     
 BV bnd       z_2     
 BV bnd       z_3     
 BV bnd       z_4     
ENDATA
